p cnf 553 2257
-2 0
-3 0
-4 0
-5 0
-6 0
-7 0
1 0
50 8 0
-50 -8 0
8 9 10 11 12 13 14 0
-8 357 0
-9 358 0
-357 358 0
-357 -9 0
-10 359 0
-358 359 0
-358 -10 0
-11 360 0
-359 360 0
-359 -11 0
-12 361 0
-360 361 0
-360 -12 0
-13 362 0
-361 362 0
-361 -13 0
-362 -14 0
-8 1 15 0
-8 1 57 0
-8 15 57 0
-9 2 16 0
-9 2 58 0
-9 16 58 0
-10 3 17 0
-10 3 59 0
-10 17 59 0
-11 4 18 0
-11 4 60 0
-11 18 60 0
-12 5 19 0
-12 5 61 0
-12 19 61 0
-13 6 20 0
-13 6 62 0
-13 20 62 0
-14 7 21 0
-14 7 63 0
-14 21 63 0
-8 -1 -15 -57 0
-9 -2 -16 -58 0
-10 -3 -17 -59 0
-11 -4 -18 -60 0
-12 -5 -19 -61 0
-13 -6 -20 -62 0
-14 -7 -21 -63 0
15 16 17 18 19 20 21 0
-15 363 0
-16 364 0
-363 364 0
-363 -16 0
-17 365 0
-364 365 0
-364 -17 0
-18 366 0
-365 366 0
-365 -18 0
-19 367 0
-366 367 0
-366 -19 0
-20 368 0
-367 368 0
-367 -20 0
-368 -21 0
-15 8 22 0
-15 8 64 0
-15 22 64 0
-16 9 23 0
-16 9 65 0
-16 23 65 0
-17 10 24 0
-17 10 66 0
-17 24 66 0
-18 11 25 0
-18 11 67 0
-18 25 67 0
-19 12 26 0
-19 12 68 0
-19 26 68 0
-20 13 27 0
-20 13 69 0
-20 27 69 0
-21 14 28 0
-21 14 70 0
-21 28 70 0
-15 -8 -22 -64 0
-16 -9 -23 -65 0
-17 -10 -24 -66 0
-18 -11 -25 -67 0
-19 -12 -26 -68 0
-20 -13 -27 -69 0
-21 -14 -28 -70 0
22 23 24 25 26 27 28 0
-22 369 0
-23 370 0
-369 370 0
-369 -23 0
-24 371 0
-370 371 0
-370 -24 0
-25 372 0
-371 372 0
-371 -25 0
-26 373 0
-372 373 0
-372 -26 0
-27 374 0
-373 374 0
-373 -27 0
-374 -28 0
-22 15 29 0
-22 15 71 0
-22 29 71 0
-23 16 30 0
-23 16 72 0
-23 30 72 0
-24 17 31 0
-24 17 73 0
-24 31 73 0
-25 18 32 0
-25 18 74 0
-25 32 74 0
-26 19 33 0
-26 19 75 0
-26 33 75 0
-27 20 34 0
-27 20 76 0
-27 34 76 0
-28 21 35 0
-28 21 77 0
-28 35 77 0
-22 -15 -29 -71 0
-23 -16 -30 -72 0
-24 -17 -31 -73 0
-25 -18 -32 -74 0
-26 -19 -33 -75 0
-27 -20 -34 -76 0
-28 -21 -35 -77 0
-29 0
-31 0
-32 0
-33 0
-34 0
-35 0
30 0
23 37 79 0
-23 -37 0
-23 -79 0
-37 -79 0
-36 0
-37 0
-39 0
-40 0
-41 0
-42 0
38 0
31 45 87 0
-31 -45 0
-31 -87 0
-45 -87 0
43 44 45 46 47 48 49 0
-43 387 0
-44 388 0
-387 388 0
-387 -44 0
-45 389 0
-388 389 0
-388 -45 0
-46 390 0
-389 390 0
-389 -46 0
-47 391 0
-390 391 0
-390 -47 0
-48 392 0
-391 392 0
-391 -48 0
-392 -49 0
-43 92 0
-43 36 0
-44 93 0
-44 37 0
-45 94 0
-45 38 0
-46 95 0
-46 39 0
-47 96 0
-47 40 0
-48 97 0
-48 41 0
-49 98 0
-49 42 0
50 51 52 53 54 55 56 0
-50 393 0
-51 394 0
-393 394 0
-393 -51 0
-52 395 0
-394 395 0
-394 -52 0
-53 396 0
-395 396 0
-395 -53 0
-54 397 0
-396 397 0
-396 -54 0
-55 398 0
-397 398 0
-397 -55 0
-398 -56 0
-50 99 57 0
-50 99 1 0
-50 57 1 0
-51 100 58 0
-51 100 2 0
-51 58 2 0
-52 101 59 0
-52 101 3 0
-52 59 3 0
-53 102 60 0
-53 102 4 0
-53 60 4 0
-54 103 61 0
-54 103 5 0
-54 61 5 0
-55 104 62 0
-55 104 6 0
-55 62 6 0
-56 105 63 0
-56 105 7 0
-56 63 7 0
-50 -99 -57 -1 0
-51 -100 -58 -2 0
-52 -101 -59 -3 0
-53 -102 -60 -4 0
-54 -103 -61 -5 0
-55 -104 -62 -6 0
-56 -105 -63 -7 0
57 58 59 60 61 62 63 0
-57 399 0
-58 400 0
-399 400 0
-399 -58 0
-59 401 0
-400 401 0
-400 -59 0
-60 402 0
-401 402 0
-401 -60 0
-61 403 0
-402 403 0
-402 -61 0
-62 404 0
-403 404 0
-403 -62 0
-404 -63 0
-57 106 64 8 0
-57 106 64 50 0
-57 106 8 50 0
-57 64 8 50 0
-58 107 65 9 0
-58 107 65 51 0
-58 107 9 51 0
-58 65 9 51 0
-59 108 66 10 0
-59 108 66 52 0
-59 108 10 52 0
-59 66 10 52 0
-60 109 67 11 0
-60 109 67 53 0
-60 109 11 53 0
-60 67 11 53 0
-61 110 68 12 0
-61 110 68 54 0
-61 110 12 54 0
-61 68 12 54 0
-62 111 69 13 0
-62 111 69 55 0
-62 111 13 55 0
-62 69 13 55 0
-63 112 70 14 0
-63 112 70 56 0
-63 112 14 56 0
-63 70 14 56 0
-57 -106 -64 -8 0
-57 -106 -64 -50 0
-57 -106 -8 -50 0
-57 -64 -8 -50 0
-58 -107 -65 -9 0
-58 -107 -65 -51 0
-58 -107 -9 -51 0
-58 -65 -9 -51 0
-59 -108 -66 -10 0
-59 -108 -66 -52 0
-59 -108 -10 -52 0
-59 -66 -10 -52 0
-60 -109 -67 -11 0
-60 -109 -67 -53 0
-60 -109 -11 -53 0
-60 -67 -11 -53 0
-61 -110 -68 -12 0
-61 -110 -68 -54 0
-61 -110 -12 -54 0
-61 -68 -12 -54 0
-62 -111 -69 -13 0
-62 -111 -69 -55 0
-62 -111 -13 -55 0
-62 -69 -13 -55 0
-63 -112 -70 -14 0
-63 -112 -70 -56 0
-63 -112 -14 -56 0
-63 -70 -14 -56 0
-64 0
-65 0
-66 0
-68 0
-69 0
-70 0
67 0
116 74 18 60 0
-116 -74 0
-116 -18 0
-116 -60 0
-74 -18 0
-74 -60 0
-18 -60 0
71 72 73 74 75 76 77 0
-71 411 0
-72 412 0
-411 412 0
-411 -72 0
-73 413 0
-412 413 0
-412 -73 0
-74 414 0
-413 414 0
-413 -74 0
-75 415 0
-414 415 0
-414 -75 0
-76 416 0
-415 416 0
-415 -76 0
-416 -77 0
-71 120 78 22 0
-71 120 78 64 0
-71 120 22 64 0
-71 78 22 64 0
-72 121 79 23 0
-72 121 79 65 0
-72 121 23 65 0
-72 79 23 65 0
-73 122 80 24 0
-73 122 80 66 0
-73 122 24 66 0
-73 80 24 66 0
-74 123 81 25 0
-74 123 81 67 0
-74 123 25 67 0
-74 81 25 67 0
-75 124 82 26 0
-75 124 82 68 0
-75 124 26 68 0
-75 82 26 68 0
-76 125 83 27 0
-76 125 83 69 0
-76 125 27 69 0
-76 83 27 69 0
-77 126 84 28 0
-77 126 84 70 0
-77 126 28 70 0
-77 84 28 70 0
-71 -120 -78 -22 0
-71 -120 -78 -64 0
-71 -120 -22 -64 0
-71 -78 -22 -64 0
-72 -121 -79 -23 0
-72 -121 -79 -65 0
-72 -121 -23 -65 0
-72 -79 -23 -65 0
-73 -122 -80 -24 0
-73 -122 -80 -66 0
-73 -122 -24 -66 0
-73 -80 -24 -66 0
-74 -123 -81 -25 0
-74 -123 -81 -67 0
-74 -123 -25 -67 0
-74 -81 -25 -67 0
-75 -124 -82 -26 0
-75 -124 -82 -68 0
-75 -124 -26 -68 0
-75 -82 -26 -68 0
-76 -125 -83 -27 0
-76 -125 -83 -69 0
-76 -125 -27 -69 0
-76 -83 -27 -69 0
-77 -126 -84 -28 0
-77 -126 -84 -70 0
-77 -126 -28 -70 0
-77 -84 -28 -70 0
78 79 80 81 82 83 84 0
-78 417 0
-79 418 0
-417 418 0
-417 -79 0
-80 419 0
-418 419 0
-418 -80 0
-81 420 0
-419 420 0
-419 -81 0
-82 421 0
-420 421 0
-420 -82 0
-83 422 0
-421 422 0
-421 -83 0
-422 -84 0
-78 127 85 29 0
-78 127 85 71 0
-78 127 29 71 0
-78 85 29 71 0
-79 128 86 30 0
-79 128 86 72 0
-79 128 30 72 0
-79 86 30 72 0
-80 129 87 31 0
-80 129 87 73 0
-80 129 31 73 0
-80 87 31 73 0
-81 130 88 32 0
-81 130 88 74 0
-81 130 32 74 0
-81 88 32 74 0
-82 131 89 33 0
-82 131 89 75 0
-82 131 33 75 0
-82 89 33 75 0
-83 132 90 34 0
-83 132 90 76 0
-83 132 34 76 0
-83 90 34 76 0
-84 133 91 35 0
-84 133 91 77 0
-84 133 35 77 0
-84 91 35 77 0
-78 -127 -85 -29 0
-78 -127 -85 -71 0
-78 -127 -29 -71 0
-78 -85 -29 -71 0
-79 -128 -86 -30 0
-79 -128 -86 -72 0
-79 -128 -30 -72 0
-79 -86 -30 -72 0
-80 -129 -87 -31 0
-80 -129 -87 -73 0
-80 -129 -31 -73 0
-80 -87 -31 -73 0
-81 -130 -88 -32 0
-81 -130 -88 -74 0
-81 -130 -32 -74 0
-81 -88 -32 -74 0
-82 -131 -89 -33 0
-82 -131 -89 -75 0
-82 -131 -33 -75 0
-82 -89 -33 -75 0
-83 -132 -90 -34 0
-83 -132 -90 -76 0
-83 -132 -34 -76 0
-83 -90 -34 -76 0
-84 -133 -91 -35 0
-84 -133 -91 -77 0
-84 -133 -35 -77 0
-84 -91 -35 -77 0
-85 0
-87 0
-88 0
-89 0
-90 0
-91 0
86 0
135 93 37 79 0
-135 -93 0
-135 -37 0
-135 -79 0
-93 -37 0
-93 -79 0
-37 -79 0
92 93 94 95 96 97 98 0
-92 429 0
-93 430 0
-429 430 0
-429 -93 0
-94 431 0
-430 431 0
-430 -94 0
-95 432 0
-431 432 0
-431 -95 0
-96 433 0
-432 433 0
-432 -96 0
-97 434 0
-433 434 0
-433 -97 0
-434 -98 0
-92 141 85 0
-92 141 43 0
-92 85 43 0
-93 142 86 0
-93 142 44 0
-93 86 44 0
-94 143 87 0
-94 143 45 0
-94 87 45 0
-95 144 88 0
-95 144 46 0
-95 88 46 0
-96 145 89 0
-96 145 47 0
-96 89 47 0
-97 146 90 0
-97 146 48 0
-97 90 48 0
-98 147 91 0
-98 147 49 0
-98 91 49 0
-92 -141 -85 -43 0
-93 -142 -86 -44 0
-94 -143 -87 -45 0
-95 -144 -88 -46 0
-96 -145 -89 -47 0
-97 -146 -90 -48 0
-98 -147 -91 -49 0
99 100 101 102 103 104 105 0
-99 435 0
-100 436 0
-435 436 0
-435 -100 0
-101 437 0
-436 437 0
-436 -101 0
-102 438 0
-437 438 0
-437 -102 0
-103 439 0
-438 439 0
-438 -103 0
-104 440 0
-439 440 0
-439 -104 0
-440 -105 0
-99 148 106 0
-99 148 50 0
-99 106 50 0
-100 149 107 0
-100 149 51 0
-100 107 51 0
-101 150 108 0
-101 150 52 0
-101 108 52 0
-102 151 109 0
-102 151 53 0
-102 109 53 0
-103 152 110 0
-103 152 54 0
-103 110 54 0
-104 153 111 0
-104 153 55 0
-104 111 55 0
-105 154 112 0
-105 154 56 0
-105 112 56 0
-99 -148 -106 -50 0
-100 -149 -107 -51 0
-101 -150 -108 -52 0
-102 -151 -109 -53 0
-103 -152 -110 -54 0
-104 -153 -111 -55 0
-105 -154 -112 -56 0
106 107 108 109 110 111 112 0
-106 441 0
-107 442 0
-441 442 0
-441 -107 0
-108 443 0
-442 443 0
-442 -108 0
-109 444 0
-443 444 0
-443 -109 0
-110 445 0
-444 445 0
-444 -110 0
-111 446 0
-445 446 0
-445 -111 0
-446 -112 0
-106 155 113 57 0
-106 155 113 99 0
-106 155 57 99 0
-106 113 57 99 0
-107 156 114 58 0
-107 156 114 100 0
-107 156 58 100 0
-107 114 58 100 0
-108 157 115 59 0
-108 157 115 101 0
-108 157 59 101 0
-108 115 59 101 0
-109 158 116 60 0
-109 158 116 102 0
-109 158 60 102 0
-109 116 60 102 0
-110 159 117 61 0
-110 159 117 103 0
-110 159 61 103 0
-110 117 61 103 0
-111 160 118 62 0
-111 160 118 104 0
-111 160 62 104 0
-111 118 62 104 0
-112 161 119 63 0
-112 161 119 105 0
-112 161 63 105 0
-112 119 63 105 0
-106 -155 -113 -57 0
-106 -155 -113 -99 0
-106 -155 -57 -99 0
-106 -113 -57 -99 0
-107 -156 -114 -58 0
-107 -156 -114 -100 0
-107 -156 -58 -100 0
-107 -114 -58 -100 0
-108 -157 -115 -59 0
-108 -157 -115 -101 0
-108 -157 -59 -101 0
-108 -115 -59 -101 0
-109 -158 -116 -60 0
-109 -158 -116 -102 0
-109 -158 -60 -102 0
-109 -116 -60 -102 0
-110 -159 -117 -61 0
-110 -159 -117 -103 0
-110 -159 -61 -103 0
-110 -117 -61 -103 0
-111 -160 -118 -62 0
-111 -160 -118 -104 0
-111 -160 -62 -104 0
-111 -118 -62 -104 0
-112 -161 -119 -63 0
-112 -161 -119 -105 0
-112 -161 -63 -105 0
-112 -119 -63 -105 0
113 114 115 116 117 118 119 0
-113 447 0
-114 448 0
-447 448 0
-447 -114 0
-115 449 0
-448 449 0
-448 -115 0
-116 450 0
-449 450 0
-449 -116 0
-117 451 0
-450 451 0
-450 -117 0
-118 452 0
-451 452 0
-451 -118 0
-452 -119 0
-113 162 120 64 0
-113 162 120 106 0
-113 162 64 106 0
-113 120 64 106 0
-114 163 121 65 0
-114 163 121 107 0
-114 163 65 107 0
-114 121 65 107 0
-115 164 122 66 0
-115 164 122 108 0
-115 164 66 108 0
-115 122 66 108 0
-116 165 123 67 0
-116 165 123 109 0
-116 165 67 109 0
-116 123 67 109 0
-117 166 124 68 0
-117 166 124 110 0
-117 166 68 110 0
-117 124 68 110 0
-118 167 125 69 0
-118 167 125 111 0
-118 167 69 111 0
-118 125 69 111 0
-119 168 126 70 0
-119 168 126 112 0
-119 168 70 112 0
-119 126 70 112 0
-113 -162 -120 -64 0
-113 -162 -120 -106 0
-113 -162 -64 -106 0
-113 -120 -64 -106 0
-114 -163 -121 -65 0
-114 -163 -121 -107 0
-114 -163 -65 -107 0
-114 -121 -65 -107 0
-115 -164 -122 -66 0
-115 -164 -122 -108 0
-115 -164 -66 -108 0
-115 -122 -66 -108 0
-116 -165 -123 -67 0
-116 -165 -123 -109 0
-116 -165 -67 -109 0
-116 -123 -67 -109 0
-117 -166 -124 -68 0
-117 -166 -124 -110 0
-117 -166 -68 -110 0
-117 -124 -68 -110 0
-118 -167 -125 -69 0
-118 -167 -125 -111 0
-118 -167 -69 -111 0
-118 -125 -69 -111 0
-119 -168 -126 -70 0
-119 -168 -126 -112 0
-119 -168 -70 -112 0
-119 -126 -70 -112 0
120 121 122 123 124 125 126 0
-120 453 0
-121 454 0
-453 454 0
-453 -121 0
-122 455 0
-454 455 0
-454 -122 0
-123 456 0
-455 456 0
-455 -123 0
-124 457 0
-456 457 0
-456 -124 0
-125 458 0
-457 458 0
-457 -125 0
-458 -126 0
-120 169 127 71 0
-120 169 127 113 0
-120 169 71 113 0
-120 127 71 113 0
-121 170 128 72 0
-121 170 128 114 0
-121 170 72 114 0
-121 128 72 114 0
-122 171 129 73 0
-122 171 129 115 0
-122 171 73 115 0
-122 129 73 115 0
-123 172 130 74 0
-123 172 130 116 0
-123 172 74 116 0
-123 130 74 116 0
-124 173 131 75 0
-124 173 131 117 0
-124 173 75 117 0
-124 131 75 117 0
-125 174 132 76 0
-125 174 132 118 0
-125 174 76 118 0
-125 132 76 118 0
-126 175 133 77 0
-126 175 133 119 0
-126 175 77 119 0
-126 133 77 119 0
-120 -169 -127 -71 0
-120 -169 -127 -113 0
-120 -169 -71 -113 0
-120 -127 -71 -113 0
-121 -170 -128 -72 0
-121 -170 -128 -114 0
-121 -170 -72 -114 0
-121 -128 -72 -114 0
-122 -171 -129 -73 0
-122 -171 -129 -115 0
-122 -171 -73 -115 0
-122 -129 -73 -115 0
-123 -172 -130 -74 0
-123 -172 -130 -116 0
-123 -172 -74 -116 0
-123 -130 -74 -116 0
-124 -173 -131 -75 0
-124 -173 -131 -117 0
-124 -173 -75 -117 0
-124 -131 -75 -117 0
-125 -174 -132 -76 0
-125 -174 -132 -118 0
-125 -174 -76 -118 0
-125 -132 -76 -118 0
-126 -175 -133 -77 0
-126 -175 -133 -119 0
-126 -175 -77 -119 0
-126 -133 -77 -119 0
127 128 129 130 131 132 133 0
-127 459 0
-128 460 0
-459 460 0
-459 -128 0
-129 461 0
-460 461 0
-460 -129 0
-130 462 0
-461 462 0
-461 -130 0
-131 463 0
-462 463 0
-462 -131 0
-132 464 0
-463 464 0
-463 -132 0
-464 -133 0
-127 176 134 78 0
-127 176 134 120 0
-127 176 78 120 0
-127 134 78 120 0
-128 177 135 79 0
-128 177 135 121 0
-128 177 79 121 0
-128 135 79 121 0
-129 178 136 80 0
-129 178 136 122 0
-129 178 80 122 0
-129 136 80 122 0
-130 179 137 81 0
-130 179 137 123 0
-130 179 81 123 0
-130 137 81 123 0
-131 180 138 82 0
-131 180 138 124 0
-131 180 82 124 0
-131 138 82 124 0
-132 181 139 83 0
-132 181 139 125 0
-132 181 83 125 0
-132 139 83 125 0
-133 182 140 84 0
-133 182 140 126 0
-133 182 84 126 0
-133 140 84 126 0
-127 -176 -134 -78 0
-127 -176 -134 -120 0
-127 -176 -78 -120 0
-127 -134 -78 -120 0
-128 -177 -135 -79 0
-128 -177 -135 -121 0
-128 -177 -79 -121 0
-128 -135 -79 -121 0
-129 -178 -136 -80 0
-129 -178 -136 -122 0
-129 -178 -80 -122 0
-129 -136 -80 -122 0
-130 -179 -137 -81 0
-130 -179 -137 -123 0
-130 -179 -81 -123 0
-130 -137 -81 -123 0
-131 -180 -138 -82 0
-131 -180 -138 -124 0
-131 -180 -82 -124 0
-131 -138 -82 -124 0
-132 -181 -139 -83 0
-132 -181 -139 -125 0
-132 -181 -83 -125 0
-132 -139 -83 -125 0
-133 -182 -140 -84 0
-133 -182 -140 -126 0
-133 -182 -84 -126 0
-133 -140 -84 -126 0
-134 0
-135 0
-136 0
-137 0
-139 0
-140 0
138 0
187 145 89 131 0
-187 -145 0
-187 -89 0
-187 -131 0
-145 -89 0
-145 -131 0
-89 -131 0
141 142 143 144 145 146 147 0
-141 471 0
-142 472 0
-471 472 0
-471 -142 0
-143 473 0
-472 473 0
-472 -143 0
-144 474 0
-473 474 0
-473 -144 0
-145 475 0
-474 475 0
-474 -145 0
-146 476 0
-475 476 0
-475 -146 0
-476 -147 0
-141 190 134 0
-141 190 92 0
-141 134 92 0
-142 191 135 0
-142 191 93 0
-142 135 93 0
-143 192 136 0
-143 192 94 0
-143 136 94 0
-144 193 137 0
-144 193 95 0
-144 137 95 0
-145 194 138 0
-145 194 96 0
-145 138 96 0
-146 195 139 0
-146 195 97 0
-146 139 97 0
-147 196 140 0
-147 196 98 0
-147 140 98 0
-141 -190 -134 -92 0
-142 -191 -135 -93 0
-143 -192 -136 -94 0
-144 -193 -137 -95 0
-145 -194 -138 -96 0
-146 -195 -139 -97 0
-147 -196 -140 -98 0
-149 0
-150 0
-151 0
-152 0
-153 0
-154 0
148 0
197 155 99 0
-197 -155 0
-197 -99 0
-155 -99 0
-155 0
-156 0
-157 0
-158 0
-159 0
-161 0
160 0
209 167 111 153 0
-209 -167 0
-209 -111 0
-209 -153 0
-167 -111 0
-167 -153 0
-111 -153 0
162 163 164 165 166 167 168 0
-162 489 0
-163 490 0
-489 490 0
-489 -163 0
-164 491 0
-490 491 0
-490 -164 0
-165 492 0
-491 492 0
-491 -165 0
-166 493 0
-492 493 0
-492 -166 0
-167 494 0
-493 494 0
-493 -167 0
-494 -168 0
-162 211 169 113 0
-162 211 169 155 0
-162 211 113 155 0
-162 169 113 155 0
-163 212 170 114 0
-163 212 170 156 0
-163 212 114 156 0
-163 170 114 156 0
-164 213 171 115 0
-164 213 171 157 0
-164 213 115 157 0
-164 171 115 157 0
-165 214 172 116 0
-165 214 172 158 0
-165 214 116 158 0
-165 172 116 158 0
-166 215 173 117 0
-166 215 173 159 0
-166 215 117 159 0
-166 173 117 159 0
-167 216 174 118 0
-167 216 174 160 0
-167 216 118 160 0
-167 174 118 160 0
-168 217 175 119 0
-168 217 175 161 0
-168 217 119 161 0
-168 175 119 161 0
-162 -211 -169 -113 0
-162 -211 -169 -155 0
-162 -211 -113 -155 0
-162 -169 -113 -155 0
-163 -212 -170 -114 0
-163 -212 -170 -156 0
-163 -212 -114 -156 0
-163 -170 -114 -156 0
-164 -213 -171 -115 0
-164 -213 -171 -157 0
-164 -213 -115 -157 0
-164 -171 -115 -157 0
-165 -214 -172 -116 0
-165 -214 -172 -158 0
-165 -214 -116 -158 0
-165 -172 -116 -158 0
-166 -215 -173 -117 0
-166 -215 -173 -159 0
-166 -215 -117 -159 0
-166 -173 -117 -159 0
-167 -216 -174 -118 0
-167 -216 -174 -160 0
-167 -216 -118 -160 0
-167 -174 -118 -160 0
-168 -217 -175 -119 0
-168 -217 -175 -161 0
-168 -217 -119 -161 0
-168 -175 -119 -161 0
-169 0
-170 0
-171 0
-173 0
-174 0
-175 0
172 0
221 179 123 165 0
-221 -179 0
-221 -123 0
-221 -165 0
-179 -123 0
-179 -165 0
-123 -165 0
176 177 178 179 180 181 182 0
-176 501 0
-177 502 0
-501 502 0
-501 -177 0
-178 503 0
-502 503 0
-502 -178 0
-179 504 0
-503 504 0
-503 -179 0
-180 505 0
-504 505 0
-504 -180 0
-181 506 0
-505 506 0
-505 -181 0
-506 -182 0
-176 225 183 127 0
-176 225 183 169 0
-176 225 127 169 0
-176 183 127 169 0
-177 226 184 128 0
-177 226 184 170 0
-177 226 128 170 0
-177 184 128 170 0
-178 227 185 129 0
-178 227 185 171 0
-178 227 129 171 0
-178 185 129 171 0
-179 228 186 130 0
-179 228 186 172 0
-179 228 130 172 0
-179 186 130 172 0
-180 229 187 131 0
-180 229 187 173 0
-180 229 131 173 0
-180 187 131 173 0
-181 230 188 132 0
-181 230 188 174 0
-181 230 132 174 0
-181 188 132 174 0
-182 231 189 133 0
-182 231 189 175 0
-182 231 133 175 0
-182 189 133 175 0
-176 -225 -183 -127 0
-176 -225 -183 -169 0
-176 -225 -127 -169 0
-176 -183 -127 -169 0
-177 -226 -184 -128 0
-177 -226 -184 -170 0
-177 -226 -128 -170 0
-177 -184 -128 -170 0
-178 -227 -185 -129 0
-178 -227 -185 -171 0
-178 -227 -129 -171 0
-178 -185 -129 -171 0
-179 -228 -186 -130 0
-179 -228 -186 -172 0
-179 -228 -130 -172 0
-179 -186 -130 -172 0
-180 -229 -187 -131 0
-180 -229 -187 -173 0
-180 -229 -131 -173 0
-180 -187 -131 -173 0
-181 -230 -188 -132 0
-181 -230 -188 -174 0
-181 -230 -132 -174 0
-181 -188 -132 -174 0
-182 -231 -189 -133 0
-182 -231 -189 -175 0
-182 -231 -133 -175 0
-182 -189 -133 -175 0
183 184 185 186 187 188 189 0
-183 507 0
-184 508 0
-507 508 0
-507 -184 0
-185 509 0
-508 509 0
-508 -185 0
-186 510 0
-509 510 0
-509 -186 0
-187 511 0
-510 511 0
-510 -187 0
-188 512 0
-511 512 0
-511 -188 0
-512 -189 0
-183 232 190 134 0
-183 232 190 176 0
-183 232 134 176 0
-183 190 134 176 0
-184 233 191 135 0
-184 233 191 177 0
-184 233 135 177 0
-184 191 135 177 0
-185 234 192 136 0
-185 234 192 178 0
-185 234 136 178 0
-185 192 136 178 0
-186 235 193 137 0
-186 235 193 179 0
-186 235 137 179 0
-186 193 137 179 0
-187 236 194 138 0
-187 236 194 180 0
-187 236 138 180 0
-187 194 138 180 0
-188 237 195 139 0
-188 237 195 181 0
-188 237 139 181 0
-188 195 139 181 0
-189 238 196 140 0
-189 238 196 182 0
-189 238 140 182 0
-189 196 140 182 0
-183 -232 -190 -134 0
-183 -232 -190 -176 0
-183 -232 -134 -176 0
-183 -190 -134 -176 0
-184 -233 -191 -135 0
-184 -233 -191 -177 0
-184 -233 -135 -177 0
-184 -191 -135 -177 0
-185 -234 -192 -136 0
-185 -234 -192 -178 0
-185 -234 -136 -178 0
-185 -192 -136 -178 0
-186 -235 -193 -137 0
-186 -235 -193 -179 0
-186 -235 -137 -179 0
-186 -193 -137 -179 0
-187 -236 -194 -138 0
-187 -236 -194 -180 0
-187 -236 -138 -180 0
-187 -194 -138 -180 0
-188 -237 -195 -139 0
-188 -237 -195 -181 0
-188 -237 -139 -181 0
-188 -195 -139 -181 0
-189 -238 -196 -140 0
-189 -238 -196 -182 0
-189 -238 -140 -182 0
-189 -196 -140 -182 0
190 191 192 193 194 195 196 0
-190 513 0
-191 514 0
-513 514 0
-513 -191 0
-192 515 0
-514 515 0
-514 -192 0
-193 516 0
-515 516 0
-515 -193 0
-194 517 0
-516 517 0
-516 -194 0
-195 518 0
-517 518 0
-517 -195 0
-518 -196 0
-190 239 183 0
-190 239 141 0
-190 183 141 0
-191 240 184 0
-191 240 142 0
-191 184 142 0
-192 241 185 0
-192 241 143 0
-192 185 143 0
-193 242 186 0
-193 242 144 0
-193 186 144 0
-194 243 187 0
-194 243 145 0
-194 187 145 0
-195 244 188 0
-195 244 146 0
-195 188 146 0
-196 245 189 0
-196 245 147 0
-196 189 147 0
-190 -239 -183 -141 0
-191 -240 -184 -142 0
-192 -241 -185 -143 0
-193 -242 -186 -144 0
-194 -243 -187 -145 0
-195 -244 -188 -146 0
-196 -245 -189 -147 0
-197 0
-198 0
-199 0
-200 0
-202 0
-203 0
201 0
250 208 152 0
-250 -208 0
-250 -152 0
-208 -152 0
204 205 206 207 208 209 210 0
-204 525 0
-205 526 0
-525 526 0
-525 -205 0
-206 527 0
-526 527 0
-526 -206 0
-207 528 0
-527 528 0
-527 -207 0
-208 529 0
-528 529 0
-528 -208 0
-209 530 0
-529 530 0
-529 -209 0
-530 -210 0
-204 253 211 155 0
-204 253 211 197 0
-204 253 155 197 0
-204 211 155 197 0
-205 254 212 156 0
-205 254 212 198 0
-205 254 156 198 0
-205 212 156 198 0
-206 255 213 157 0
-206 255 213 199 0
-206 255 157 199 0
-206 213 157 199 0
-207 256 214 158 0
-207 256 214 200 0
-207 256 158 200 0
-207 214 158 200 0
-208 257 215 159 0
-208 257 215 201 0
-208 257 159 201 0
-208 215 159 201 0
-209 258 216 160 0
-209 258 216 202 0
-209 258 160 202 0
-209 216 160 202 0
-210 259 217 161 0
-210 259 217 203 0
-210 259 161 203 0
-210 217 161 203 0
-204 -253 -211 -155 0
-204 -253 -211 -197 0
-204 -253 -155 -197 0
-204 -211 -155 -197 0
-205 -254 -212 -156 0
-205 -254 -212 -198 0
-205 -254 -156 -198 0
-205 -212 -156 -198 0
-206 -255 -213 -157 0
-206 -255 -213 -199 0
-206 -255 -157 -199 0
-206 -213 -157 -199 0
-207 -256 -214 -158 0
-207 -256 -214 -200 0
-207 -256 -158 -200 0
-207 -214 -158 -200 0
-208 -257 -215 -159 0
-208 -257 -215 -201 0
-208 -257 -159 -201 0
-208 -215 -159 -201 0
-209 -258 -216 -160 0
-209 -258 -216 -202 0
-209 -258 -160 -202 0
-209 -216 -160 -202 0
-210 -259 -217 -161 0
-210 -259 -217 -203 0
-210 -259 -161 -203 0
-210 -217 -161 -203 0
211 212 213 214 215 216 217 0
-211 531 0
-212 532 0
-531 532 0
-531 -212 0
-213 533 0
-532 533 0
-532 -213 0
-214 534 0
-533 534 0
-533 -214 0
-215 535 0
-534 535 0
-534 -215 0
-216 536 0
-535 536 0
-535 -216 0
-536 -217 0
-211 260 218 162 0
-211 260 218 204 0
-211 260 162 204 0
-211 218 162 204 0
-212 261 219 163 0
-212 261 219 205 0
-212 261 163 205 0
-212 219 163 205 0
-213 262 220 164 0
-213 262 220 206 0
-213 262 164 206 0
-213 220 164 206 0
-214 263 221 165 0
-214 263 221 207 0
-214 263 165 207 0
-214 221 165 207 0
-215 264 222 166 0
-215 264 222 208 0
-215 264 166 208 0
-215 222 166 208 0
-216 265 223 167 0
-216 265 223 209 0
-216 265 167 209 0
-216 223 167 209 0
-217 266 224 168 0
-217 266 224 210 0
-217 266 168 210 0
-217 224 168 210 0
-211 -260 -218 -162 0
-211 -260 -218 -204 0
-211 -260 -162 -204 0
-211 -218 -162 -204 0
-212 -261 -219 -163 0
-212 -261 -219 -205 0
-212 -261 -163 -205 0
-212 -219 -163 -205 0
-213 -262 -220 -164 0
-213 -262 -220 -206 0
-213 -262 -164 -206 0
-213 -220 -164 -206 0
-214 -263 -221 -165 0
-214 -263 -221 -207 0
-214 -263 -165 -207 0
-214 -221 -165 -207 0
-215 -264 -222 -166 0
-215 -264 -222 -208 0
-215 -264 -166 -208 0
-215 -222 -166 -208 0
-216 -265 -223 -167 0
-216 -265 -223 -209 0
-216 -265 -167 -209 0
-216 -223 -167 -209 0
-217 -266 -224 -168 0
-217 -266 -224 -210 0
-217 -266 -168 -210 0
-217 -224 -168 -210 0
-218 0
-219 0
-220 0
-221 0
-222 0
-224 0
223 0
272 230 174 216 0
-272 -230 0
-272 -174 0
-272 -216 0
-230 -174 0
-230 -216 0
-174 -216 0
225 226 227 228 229 230 231 0
-225 543 0
-226 544 0
-543 544 0
-543 -226 0
-227 545 0
-544 545 0
-544 -227 0
-228 546 0
-545 546 0
-545 -228 0
-229 547 0
-546 547 0
-546 -229 0
-230 548 0
-547 548 0
-547 -230 0
-548 -231 0
-225 274 232 176 0
-225 274 232 218 0
-225 274 176 218 0
-225 232 176 218 0
-226 275 233 177 0
-226 275 233 219 0
-226 275 177 219 0
-226 233 177 219 0
-227 276 234 178 0
-227 276 234 220 0
-227 276 178 220 0
-227 234 178 220 0
-228 277 235 179 0
-228 277 235 221 0
-228 277 179 221 0
-228 235 179 221 0
-229 278 236 180 0
-229 278 236 222 0
-229 278 180 222 0
-229 236 180 222 0
-230 279 237 181 0
-230 279 237 223 0
-230 279 181 223 0
-230 237 181 223 0
-231 280 238 182 0
-231 280 238 224 0
-231 280 182 224 0
-231 238 182 224 0
-225 -274 -232 -176 0
-225 -274 -232 -218 0
-225 -274 -176 -218 0
-225 -232 -176 -218 0
-226 -275 -233 -177 0
-226 -275 -233 -219 0
-226 -275 -177 -219 0
-226 -233 -177 -219 0
-227 -276 -234 -178 0
-227 -276 -234 -220 0
-227 -276 -178 -220 0
-227 -234 -178 -220 0
-228 -277 -235 -179 0
-228 -277 -235 -221 0
-228 -277 -179 -221 0
-228 -235 -179 -221 0
-229 -278 -236 -180 0
-229 -278 -236 -222 0
-229 -278 -180 -222 0
-229 -236 -180 -222 0
-230 -279 -237 -181 0
-230 -279 -237 -223 0
-230 -279 -181 -223 0
-230 -237 -181 -223 0
-231 -280 -238 -182 0
-231 -280 -238 -224 0
-231 -280 -182 -224 0
-231 -238 -182 -224 0
232 233 234 235 236 237 238 0
-232 549 0
-233 550 0
-549 550 0
-549 -233 0
-234 551 0
-550 551 0
-550 -234 0
-235 552 0
-551 552 0
-551 -235 0
-236 553 0
-552 553 0
-552 -236 0
-237 554 0
-553 554 0
-553 -237 0
-554 -238 0
-232 281 239 183 0
-232 281 239 225 0
-232 281 183 225 0
-232 239 183 225 0
-233 282 240 184 0
-233 282 240 226 0
-233 282 184 226 0
-233 240 184 226 0
-234 283 241 185 0
-234 283 241 227 0
-234 283 185 227 0
-234 241 185 227 0
-235 284 242 186 0
-235 284 242 228 0
-235 284 186 228 0
-235 242 186 228 0
-236 285 243 187 0
-236 285 243 229 0
-236 285 187 229 0
-236 243 187 229 0
-237 286 244 188 0
-237 286 244 230 0
-237 286 188 230 0
-237 244 188 230 0
-238 287 245 189 0
-238 287 245 231 0
-238 287 189 231 0
-238 245 189 231 0
-232 -281 -239 -183 0
-232 -281 -239 -225 0
-232 -281 -183 -225 0
-232 -239 -183 -225 0
-233 -282 -240 -184 0
-233 -282 -240 -226 0
-233 -282 -184 -226 0
-233 -240 -184 -226 0
-234 -283 -241 -185 0
-234 -283 -241 -227 0
-234 -283 -185 -227 0
-234 -241 -185 -227 0
-235 -284 -242 -186 0
-235 -284 -242 -228 0
-235 -284 -186 -228 0
-235 -242 -186 -228 0
-236 -285 -243 -187 0
-236 -285 -243 -229 0
-236 -285 -187 -229 0
-236 -243 -187 -229 0
-237 -286 -244 -188 0
-237 -286 -244 -230 0
-237 -286 -188 -230 0
-237 -244 -188 -230 0
-238 -287 -245 -189 0
-238 -287 -245 -231 0
-238 -287 -189 -231 0
-238 -245 -189 -231 0
239 240 241 242 243 244 245 0
-239 555 0
-240 556 0
-555 556 0
-555 -240 0
-241 557 0
-556 557 0
-556 -241 0
-242 558 0
-557 558 0
-557 -242 0
-243 559 0
-558 559 0
-558 -243 0
-244 560 0
-559 560 0
-559 -244 0
-560 -245 0
-239 288 232 0
-239 288 190 0
-239 232 190 0
-240 289 233 0
-240 289 191 0
-240 233 191 0
-241 290 234 0
-241 290 192 0
-241 234 192 0
-242 291 235 0
-242 291 193 0
-242 235 193 0
-243 292 236 0
-243 292 194 0
-243 236 194 0
-244 293 237 0
-244 293 195 0
-244 237 195 0
-245 294 238 0
-245 294 196 0
-245 238 196 0
-239 -288 -232 -190 0
-240 -289 -233 -191 0
-241 -290 -234 -192 0
-242 -291 -235 -193 0
-243 -292 -236 -194 0
-244 -293 -237 -195 0
-245 -294 -238 -196 0
246 247 248 249 250 251 252 0
-246 561 0
-247 562 0
-561 562 0
-561 -247 0
-248 563 0
-562 563 0
-562 -248 0
-249 564 0
-563 564 0
-563 -249 0
-250 565 0
-564 565 0
-564 -250 0
-251 566 0
-565 566 0
-565 -251 0
-566 -252 0
-246 295 253 0
-246 295 197 0
-246 253 197 0
-247 296 254 0
-247 296 198 0
-247 254 198 0
-248 297 255 0
-248 297 199 0
-248 255 199 0
-249 298 256 0
-249 298 200 0
-249 256 200 0
-250 299 257 0
-250 299 201 0
-250 257 201 0
-251 300 258 0
-251 300 202 0
-251 258 202 0
-252 301 259 0
-252 301 203 0
-252 259 203 0
-246 -295 -253 -197 0
-247 -296 -254 -198 0
-248 -297 -255 -199 0
-249 -298 -256 -200 0
-250 -299 -257 -201 0
-251 -300 -258 -202 0
-252 -301 -259 -203 0
-253 0
-254 0
-255 0
-256 0
-257 0
-258 0
259 0
308 266 210 252 0
-308 -266 0
-308 -210 0
-308 -252 0
-266 -210 0
-266 -252 0
-210 -252 0
260 261 262 263 264 265 266 0
-260 573 0
-261 574 0
-573 574 0
-573 -261 0
-262 575 0
-574 575 0
-574 -262 0
-263 576 0
-575 576 0
-575 -263 0
-264 577 0
-576 577 0
-576 -264 0
-265 578 0
-577 578 0
-577 -265 0
-578 -266 0
-260 309 267 211 0
-260 309 267 253 0
-260 309 211 253 0
-260 267 211 253 0
-261 310 268 212 0
-261 310 268 254 0
-261 310 212 254 0
-261 268 212 254 0
-262 311 269 213 0
-262 311 269 255 0
-262 311 213 255 0
-262 269 213 255 0
-263 312 270 214 0
-263 312 270 256 0
-263 312 214 256 0
-263 270 214 256 0
-264 313 271 215 0
-264 313 271 257 0
-264 313 215 257 0
-264 271 215 257 0
-265 314 272 216 0
-265 314 272 258 0
-265 314 216 258 0
-265 272 216 258 0
-266 315 273 217 0
-266 315 273 259 0
-266 315 217 259 0
-266 273 217 259 0
-260 -309 -267 -211 0
-260 -309 -267 -253 0
-260 -309 -211 -253 0
-260 -267 -211 -253 0
-261 -310 -268 -212 0
-261 -310 -268 -254 0
-261 -310 -212 -254 0
-261 -268 -212 -254 0
-262 -311 -269 -213 0
-262 -311 -269 -255 0
-262 -311 -213 -255 0
-262 -269 -213 -255 0
-263 -312 -270 -214 0
-263 -312 -270 -256 0
-263 -312 -214 -256 0
-263 -270 -214 -256 0
-264 -313 -271 -215 0
-264 -313 -271 -257 0
-264 -313 -215 -257 0
-264 -271 -215 -257 0
-265 -314 -272 -216 0
-265 -314 -272 -258 0
-265 -314 -216 -258 0
-265 -272 -216 -258 0
-266 -315 -273 -217 0
-266 -315 -273 -259 0
-266 -315 -217 -259 0
-266 -273 -217 -259 0
267 268 269 270 271 272 273 0
-267 579 0
-268 580 0
-579 580 0
-579 -268 0
-269 581 0
-580 581 0
-580 -269 0
-270 582 0
-581 582 0
-581 -270 0
-271 583 0
-582 583 0
-582 -271 0
-272 584 0
-583 584 0
-583 -272 0
-584 -273 0
-267 316 274 218 0
-267 316 274 260 0
-267 316 218 260 0
-267 274 218 260 0
-268 317 275 219 0
-268 317 275 261 0
-268 317 219 261 0
-268 275 219 261 0
-269 318 276 220 0
-269 318 276 262 0
-269 318 220 262 0
-269 276 220 262 0
-270 319 277 221 0
-270 319 277 263 0
-270 319 221 263 0
-270 277 221 263 0
-271 320 278 222 0
-271 320 278 264 0
-271 320 222 264 0
-271 278 222 264 0
-272 321 279 223 0
-272 321 279 265 0
-272 321 223 265 0
-272 279 223 265 0
-273 322 280 224 0
-273 322 280 266 0
-273 322 224 266 0
-273 280 224 266 0
-267 -316 -274 -218 0
-267 -316 -274 -260 0
-267 -316 -218 -260 0
-267 -274 -218 -260 0
-268 -317 -275 -219 0
-268 -317 -275 -261 0
-268 -317 -219 -261 0
-268 -275 -219 -261 0
-269 -318 -276 -220 0
-269 -318 -276 -262 0
-269 -318 -220 -262 0
-269 -276 -220 -262 0
-270 -319 -277 -221 0
-270 -319 -277 -263 0
-270 -319 -221 -263 0
-270 -277 -221 -263 0
-271 -320 -278 -222 0
-271 -320 -278 -264 0
-271 -320 -222 -264 0
-271 -278 -222 -264 0
-272 -321 -279 -223 0
-272 -321 -279 -265 0
-272 -321 -223 -265 0
-272 -279 -223 -265 0
-273 -322 -280 -224 0
-273 -322 -280 -266 0
-273 -322 -224 -266 0
-273 -280 -224 -266 0
274 275 276 277 278 279 280 0
-274 585 0
-275 586 0
-585 586 0
-585 -275 0
-276 587 0
-586 587 0
-586 -276 0
-277 588 0
-587 588 0
-587 -277 0
-278 589 0
-588 589 0
-588 -278 0
-279 590 0
-589 590 0
-589 -279 0
-590 -280 0
-274 323 281 225 0
-274 323 281 267 0
-274 323 225 267 0
-274 281 225 267 0
-275 324 282 226 0
-275 324 282 268 0
-275 324 226 268 0
-275 282 226 268 0
-276 325 283 227 0
-276 325 283 269 0
-276 325 227 269 0
-276 283 227 269 0
-277 326 284 228 0
-277 326 284 270 0
-277 326 228 270 0
-277 284 228 270 0
-278 327 285 229 0
-278 327 285 271 0
-278 327 229 271 0
-278 285 229 271 0
-279 328 286 230 0
-279 328 286 272 0
-279 328 230 272 0
-279 286 230 272 0
-280 329 287 231 0
-280 329 287 273 0
-280 329 231 273 0
-280 287 231 273 0
-274 -323 -281 -225 0
-274 -323 -281 -267 0
-274 -323 -225 -267 0
-274 -281 -225 -267 0
-275 -324 -282 -226 0
-275 -324 -282 -268 0
-275 -324 -226 -268 0
-275 -282 -226 -268 0
-276 -325 -283 -227 0
-276 -325 -283 -269 0
-276 -325 -227 -269 0
-276 -283 -227 -269 0
-277 -326 -284 -228 0
-277 -326 -284 -270 0
-277 -326 -228 -270 0
-277 -284 -228 -270 0
-278 -327 -285 -229 0
-278 -327 -285 -271 0
-278 -327 -229 -271 0
-278 -285 -229 -271 0
-279 -328 -286 -230 0
-279 -328 -286 -272 0
-279 -328 -230 -272 0
-279 -286 -230 -272 0
-280 -329 -287 -231 0
-280 -329 -287 -273 0
-280 -329 -231 -273 0
-280 -287 -231 -273 0
281 282 283 284 285 286 287 0
-281 591 0
-282 592 0
-591 592 0
-591 -282 0
-283 593 0
-592 593 0
-592 -283 0
-284 594 0
-593 594 0
-593 -284 0
-285 595 0
-594 595 0
-594 -285 0
-286 596 0
-595 596 0
-595 -286 0
-596 -287 0
-281 330 288 232 0
-281 330 288 274 0
-281 330 232 274 0
-281 288 232 274 0
-282 331 289 233 0
-282 331 289 275 0
-282 331 233 275 0
-282 289 233 275 0
-283 332 290 234 0
-283 332 290 276 0
-283 332 234 276 0
-283 290 234 276 0
-284 333 291 235 0
-284 333 291 277 0
-284 333 235 277 0
-284 291 235 277 0
-285 334 292 236 0
-285 334 292 278 0
-285 334 236 278 0
-285 292 236 278 0
-286 335 293 237 0
-286 335 293 279 0
-286 335 237 279 0
-286 293 237 279 0
-287 336 294 238 0
-287 336 294 280 0
-287 336 238 280 0
-287 294 238 280 0
-281 -330 -288 -232 0
-281 -330 -288 -274 0
-281 -330 -232 -274 0
-281 -288 -232 -274 0
-282 -331 -289 -233 0
-282 -331 -289 -275 0
-282 -331 -233 -275 0
-282 -289 -233 -275 0
-283 -332 -290 -234 0
-283 -332 -290 -276 0
-283 -332 -234 -276 0
-283 -290 -234 -276 0
-284 -333 -291 -235 0
-284 -333 -291 -277 0
-284 -333 -235 -277 0
-284 -291 -235 -277 0
-285 -334 -292 -236 0
-285 -334 -292 -278 0
-285 -334 -236 -278 0
-285 -292 -236 -278 0
-286 -335 -293 -237 0
-286 -335 -293 -279 0
-286 -335 -237 -279 0
-286 -293 -237 -279 0
-287 -336 -294 -238 0
-287 -336 -294 -280 0
-287 -336 -238 -280 0
-287 -294 -238 -280 0
288 289 290 291 292 293 294 0
-288 597 0
-289 598 0
-597 598 0
-597 -289 0
-290 599 0
-598 599 0
-598 -290 0
-291 600 0
-599 600 0
-599 -291 0
-292 601 0
-600 601 0
-600 -292 0
-293 602 0
-601 602 0
-601 -293 0
-602 -294 0
-288 337 281 0
-288 337 239 0
-288 281 239 0
-289 338 282 0
-289 338 240 0
-289 282 240 0
-290 339 283 0
-290 339 241 0
-290 283 241 0
-291 340 284 0
-291 340 242 0
-291 284 242 0
-292 341 285 0
-292 341 243 0
-292 285 243 0
-293 342 286 0
-293 342 244 0
-293 286 244 0
-294 343 287 0
-294 343 245 0
-294 287 245 0
-288 -337 -281 -239 0
-289 -338 -282 -240 0
-290 -339 -283 -241 0
-291 -340 -284 -242 0
-292 -341 -285 -243 0
-293 -342 -286 -244 0
-294 -343 -287 -245 0
-295 0
-296 0
-297 0
-298 0
-299 0
-300 0
301 0
252 308 0
-252 -308 0
-302 0
-303 0
-305 0
-306 0
-307 0
-308 0
304 0
255 311 297 0
-255 -311 0
-255 -297 0
-311 -297 0
309 310 311 312 313 314 315 0
-309 615 0
-310 616 0
-615 616 0
-615 -310 0
-311 617 0
-616 617 0
-616 -311 0
-312 618 0
-617 618 0
-617 -312 0
-313 619 0
-618 619 0
-618 -313 0
-314 620 0
-619 620 0
-619 -314 0
-620 -315 0
-309 260 316 0
-309 260 302 0
-309 316 302 0
-310 261 317 0
-310 261 303 0
-310 317 303 0
-311 262 318 0
-311 262 304 0
-311 318 304 0
-312 263 319 0
-312 263 305 0
-312 319 305 0
-313 264 320 0
-313 264 306 0
-313 320 306 0
-314 265 321 0
-314 265 307 0
-314 321 307 0
-315 266 322 0
-315 266 308 0
-315 322 308 0
-309 -260 -316 -302 0
-310 -261 -317 -303 0
-311 -262 -318 -304 0
-312 -263 -319 -305 0
-313 -264 -320 -306 0
-314 -265 -321 -307 0
-315 -266 -322 -308 0
316 317 318 319 320 321 322 0
-316 621 0
-317 622 0
-621 622 0
-621 -317 0
-318 623 0
-622 623 0
-622 -318 0
-319 624 0
-623 624 0
-623 -319 0
-320 625 0
-624 625 0
-624 -320 0
-321 626 0
-625 626 0
-625 -321 0
-626 -322 0
-316 267 323 0
-316 267 309 0
-316 323 309 0
-317 268 324 0
-317 268 310 0
-317 324 310 0
-318 269 325 0
-318 269 311 0
-318 325 311 0
-319 270 326 0
-319 270 312 0
-319 326 312 0
-320 271 327 0
-320 271 313 0
-320 327 313 0
-321 272 328 0
-321 272 314 0
-321 328 314 0
-322 273 329 0
-322 273 315 0
-322 329 315 0
-316 -267 -323 -309 0
-317 -268 -324 -310 0
-318 -269 -325 -311 0
-319 -270 -326 -312 0
-320 -271 -327 -313 0
-321 -272 -328 -314 0
-322 -273 -329 -315 0
323 324 325 326 327 328 329 0
-323 627 0
-324 628 0
-627 628 0
-627 -324 0
-325 629 0
-628 629 0
-628 -325 0
-326 630 0
-629 630 0
-629 -326 0
-327 631 0
-630 631 0
-630 -327 0
-328 632 0
-631 632 0
-631 -328 0
-632 -329 0
-323 274 330 0
-323 274 316 0
-323 330 316 0
-324 275 331 0
-324 275 317 0
-324 331 317 0
-325 276 332 0
-325 276 318 0
-325 332 318 0
-326 277 333 0
-326 277 319 0
-326 333 319 0
-327 278 334 0
-327 278 320 0
-327 334 320 0
-328 279 335 0
-328 279 321 0
-328 335 321 0
-329 280 336 0
-329 280 322 0
-329 336 322 0
-323 -274 -330 -316 0
-324 -275 -331 -317 0
-325 -276 -332 -318 0
-326 -277 -333 -319 0
-327 -278 -334 -320 0
-328 -279 -335 -321 0
-329 -280 -336 -322 0
330 331 332 333 334 335 336 0
-330 633 0
-331 634 0
-633 634 0
-633 -331 0
-332 635 0
-634 635 0
-634 -332 0
-333 636 0
-635 636 0
-635 -333 0
-334 637 0
-636 637 0
-636 -334 0
-335 638 0
-637 638 0
-637 -335 0
-638 -336 0
-330 281 337 0
-330 281 323 0
-330 337 323 0
-331 282 338 0
-331 282 324 0
-331 338 324 0
-332 283 339 0
-332 283 325 0
-332 339 325 0
-333 284 340 0
-333 284 326 0
-333 340 326 0
-334 285 341 0
-334 285 327 0
-334 341 327 0
-335 286 342 0
-335 286 328 0
-335 342 328 0
-336 287 343 0
-336 287 329 0
-336 343 329 0
-330 -281 -337 -323 0
-331 -282 -338 -324 0
-332 -283 -339 -325 0
-333 -284 -340 -326 0
-334 -285 -341 -327 0
-335 -286 -342 -328 0
-336 -287 -343 -329 0
337 338 339 340 341 342 343 0
-337 639 0
-338 640 0
-639 640 0
-639 -338 0
-339 641 0
-640 641 0
-640 -339 0
-340 642 0
-641 642 0
-641 -340 0
-341 643 0
-642 643 0
-642 -341 0
-342 644 0
-643 644 0
-643 -342 0
-644 -343 0
-337 288 0
-337 330 0
-338 289 0
-338 331 0
-339 290 0
-339 332 0
-340 291 0
-340 333 0
-341 292 0
-341 334 0
-342 293 0
-342 335 0
-343 294 0
-343 336 0